Generations:
0: ((41, 7, 18, 46, 1, 8, 4, 47, 42, 34, 38, 27, 16, 2, 48, 29, 23, 35, 12, 44, 20, 31, 3, 24, 37, 11, 39, 32, 10, 9, 43, 0, 25, 15, 49, 19, 40, 22, 33, 21, 30, 36, 5, 17, 26, 45, 6, 28, 13, 14), 1329)
1: ((41, 7, 18, 46, 1, 8, 4, 47, 42, 34, 38, 27, 16, 2, 48, 29, 23, 35, 12, 44, 20, 31, 3, 24, 37, 11, 39, 32, 10, 9, 43, 0, 25, 15, 49, 19, 40, 22, 33, 21, 30, 36, 5, 17, 26, 45, 6, 28, 13, 14), 1329)
2: ((41, 7, 18, 46, 1, 8, 4, 47, 42, 34, 38, 27, 16, 2, 48, 29, 23, 35, 12, 44, 20, 31, 3, 24, 37, 11, 39, 32, 10, 9, 43, 0, 25, 15, 49, 19, 40, 22, 33, 21, 30, 36, 5, 17, 26, 45, 6, 28, 13, 14), 1329)
3: ((41, 7, 18, 46, 1, 8, 4, 47, 42, 34, 38, 27, 16, 2, 48, 29, 23, 35, 12, 44, 20, 31, 3, 24, 37, 11, 39, 32, 10, 9, 43, 0, 25, 15, 49, 19, 40, 22, 33, 21, 30, 36, 5, 17, 26, 45, 6, 28, 13, 14), 1329)
4: ((41, 7, 18, 46, 1, 8, 4, 47, 42, 34, 38, 27, 16, 2, 48, 29, 23, 35, 12, 44, 20, 31, 3, 24, 37, 11, 39, 32, 10, 9, 43, 0, 25, 15, 49, 19, 40, 22, 33, 21, 30, 36, 5, 17, 26, 45, 6, 28, 13, 14), 1329)
5: ((41, 7, 18, 46, 1, 8, 4, 47, 42, 34, 38, 27, 16, 2, 48, 29, 23, 35, 12, 44, 20, 31, 3, 24, 37, 11, 39, 32, 10, 9, 43, 0, 25, 15, 49, 19, 40, 22, 33, 21, 30, 36, 5, 17, 26, 45, 6, 28, 13, 14), 1329)
6: ((41, 7, 18, 46, 1, 8, 4, 47, 42, 34, 38, 27, 16, 2, 48, 29, 23, 35, 12, 44, 20, 31, 3, 24, 37, 11, 39, 32, 10, 9, 43, 0, 25, 15, 49, 19, 40, 22, 33, 21, 30, 36, 5, 17, 26, 45, 6, 28, 13, 14), 1329)
7: ((41, 7, 18, 46, 1, 8, 4, 47, 42, 34, 38, 27, 16, 2, 48, 29, 23, 35, 12, 44, 20, 31, 3, 24, 37, 11, 39, 32, 10, 9, 43, 0, 25, 15, 49, 19, 40, 22, 33, 21, 30, 36, 5, 17, 26, 45, 6, 28, 13, 14), 1329)
8: ((41, 7, 18, 46, 1, 8, 4, 47, 42, 34, 38, 27, 16, 2, 48, 29, 23, 35, 12, 44, 20, 31, 3, 24, 37, 11, 39, 32, 10, 9, 43, 0, 25, 15, 49, 19, 40, 22, 33, 21, 30, 36, 5, 17, 26, 45, 6, 28, 13, 14), 1329)
9: ((41, 7, 18, 46, 1, 8, 4, 47, 42, 34, 38, 27, 16, 2, 48, 29, 23, 35, 12, 44, 20, 31, 3, 24, 37, 11, 39, 32, 10, 9, 43, 0, 25, 15, 49, 19, 40, 22, 33, 21, 30, 36, 5, 17, 26, 45, 6, 28, 13, 14), 1329)
10: ((41, 7, 18, 46, 1, 8, 4, 47, 42, 34, 38, 27, 16, 2, 48, 29, 23, 35, 12, 44, 20, 31, 3, 24, 37, 11, 39, 32, 10, 9, 43, 0, 25, 15, 49, 19, 40, 22, 33, 21, 30, 36, 5, 17, 26, 45, 6, 28, 13, 14), 1329)
11: ((41, 7, 18, 46, 1, 8, 4, 47, 42, 34, 38, 27, 16, 2, 48, 29, 23, 35, 12, 44, 20, 31, 3, 24, 37, 11, 39, 32, 10, 9, 43, 0, 25, 15, 49, 19, 40, 22, 33, 21, 30, 36, 5, 17, 26, 45, 6, 28, 13, 14), 1329)
12: ((41, 7, 18, 46, 1, 8, 4, 47, 42, 34, 38, 27, 16, 2, 48, 29, 23, 35, 12, 44, 20, 31, 3, 24, 37, 11, 39, 32, 10, 9, 43, 0, 25, 15, 49, 19, 40, 22, 33, 21, 30, 36, 5, 17, 26, 45, 6, 28, 13, 14), 1329)
13: ((41, 7, 18, 46, 1, 8, 4, 47, 42, 34, 38, 27, 16, 2, 48, 29, 23, 35, 12, 44, 20, 31, 3, 24, 37, 11, 39, 32, 10, 9, 43, 0, 25, 15, 49, 19, 40, 22, 33, 21, 30, 36, 5, 17, 26, 45, 6, 28, 13, 14), 1329)
14: ((41, 7, 18, 46, 1, 8, 4, 47, 42, 34, 38, 27, 16, 2, 48, 29, 23, 35, 12, 44, 20, 31, 3, 24, 37, 11, 39, 32, 10, 9, 43, 0, 25, 15, 49, 19, 40, 22, 33, 21, 30, 36, 5, 17, 26, 45, 6, 28, 13, 14), 1329)
15: ((41, 7, 18, 46, 1, 8, 4, 47, 42, 34, 38, 27, 16, 2, 48, 29, 23, 35, 12, 44, 20, 31, 3, 24, 37, 11, 39, 32, 10, 9, 43, 0, 25, 15, 49, 19, 40, 22, 33, 21, 30, 36, 5, 17, 26, 45, 6, 28, 13, 14), 1329)
16: ((41, 7, 18, 46, 1, 8, 4, 47, 42, 34, 38, 27, 16, 2, 48, 29, 23, 35, 12, 44, 20, 31, 3, 24, 37, 11, 39, 32, 10, 9, 43, 0, 25, 15, 49, 19, 40, 22, 33, 21, 30, 36, 5, 17, 26, 45, 6, 28, 13, 14), 1329)
17: ((41, 7, 18, 46, 1, 8, 4, 47, 42, 34, 38, 27, 16, 2, 48, 29, 23, 35, 12, 44, 20, 31, 3, 24, 37, 11, 39, 32, 10, 9, 43, 0, 25, 15, 49, 19, 40, 22, 33, 21, 30, 36, 5, 17, 26, 45, 6, 28, 13, 14), 1329)
18: ((41, 7, 18, 46, 1, 8, 4, 47, 42, 34, 38, 27, 16, 2, 48, 29, 23, 35, 12, 44, 20, 31, 3, 24, 37, 11, 39, 32, 10, 9, 43, 0, 25, 15, 49, 19, 40, 22, 33, 21, 30, 36, 5, 17, 26, 45, 6, 28, 13, 14), 1329)
19: ((41, 7, 18, 46, 1, 8, 4, 47, 42, 34, 38, 27, 16, 2, 48, 29, 23, 35, 12, 44, 20, 31, 3, 24, 37, 11, 39, 32, 10, 9, 43, 0, 25, 15, 49, 19, 40, 22, 33, 21, 30, 36, 5, 17, 26, 45, 6, 28, 13, 14), 1329)
20: ((41, 7, 18, 46, 1, 8, 4, 47, 42, 34, 38, 27, 16, 2, 48, 29, 23, 35, 12, 44, 20, 31, 3, 24, 37, 11, 39, 32, 10, 9, 43, 0, 25, 15, 49, 19, 40, 22, 33, 21, 30, 36, 5, 17, 26, 45, 6, 28, 13, 14), 1329)
21: ((41, 7, 18, 46, 1, 8, 4, 47, 42, 34, 38, 27, 16, 2, 48, 29, 23, 35, 12, 44, 20, 31, 3, 24, 37, 11, 39, 32, 10, 9, 43, 0, 25, 15, 49, 19, 40, 22, 33, 21, 30, 36, 5, 17, 26, 45, 6, 28, 13, 14), 1329)
22: ((41, 7, 18, 46, 1, 8, 4, 47, 42, 34, 38, 27, 16, 2, 48, 29, 23, 35, 12, 44, 20, 31, 3, 24, 37, 11, 39, 32, 10, 9, 43, 0, 25, 15, 49, 19, 40, 22, 33, 21, 30, 36, 5, 17, 26, 45, 6, 28, 13, 14), 1329)
23: ((41, 7, 18, 46, 1, 8, 4, 47, 42, 34, 38, 27, 16, 2, 48, 29, 23, 35, 12, 44, 20, 31, 3, 24, 37, 11, 39, 32, 10, 9, 43, 0, 25, 15, 49, 19, 40, 22, 33, 21, 30, 36, 5, 17, 26, 45, 6, 28, 13, 14), 1329)
24: ((41, 7, 18, 46, 1, 8, 4, 47, 42, 34, 38, 27, 16, 2, 48, 29, 23, 35, 12, 44, 20, 31, 3, 24, 37, 11, 39, 32, 10, 9, 43, 0, 25, 15, 49, 19, 40, 22, 33, 21, 30, 36, 5, 17, 26, 45, 6, 28, 13, 14), 1329)
25: ((41, 7, 18, 46, 1, 8, 4, 47, 42, 34, 38, 27, 16, 2, 48, 29, 23, 35, 12, 44, 20, 31, 3, 24, 37, 11, 39, 32, 10, 9, 43, 0, 25, 15, 49, 19, 40, 22, 33, 21, 30, 36, 5, 17, 26, 45, 6, 28, 13, 14), 1329)
26: ((41, 7, 18, 46, 1, 8, 4, 47, 42, 34, 38, 27, 16, 2, 48, 29, 23, 35, 12, 44, 20, 31, 3, 24, 37, 11, 39, 32, 10, 9, 43, 0, 25, 15, 49, 19, 40, 22, 33, 21, 30, 36, 5, 17, 26, 45, 6, 28, 13, 14), 1329)
27: ((41, 7, 18, 46, 1, 8, 4, 47, 42, 34, 38, 27, 16, 2, 48, 29, 23, 35, 12, 44, 20, 31, 3, 24, 37, 11, 39, 32, 10, 9, 43, 0, 25, 15, 49, 19, 40, 22, 33, 21, 30, 36, 5, 17, 26, 45, 6, 28, 13, 14), 1329)
28: ((41, 7, 18, 46, 1, 8, 4, 47, 42, 34, 38, 27, 16, 2, 48, 29, 23, 35, 12, 44, 20, 31, 3, 24, 37, 11, 39, 32, 10, 9, 43, 0, 25, 15, 49, 19, 40, 22, 33, 21, 30, 36, 5, 17, 26, 45, 6, 28, 13, 14), 1329)
29: ((41, 7, 18, 46, 1, 8, 4, 47, 42, 34, 38, 27, 16, 2, 48, 29, 23, 35, 12, 44, 20, 31, 3, 24, 37, 11, 39, 32, 10, 9, 43, 0, 25, 15, 49, 19, 40, 22, 33, 21, 30, 36, 5, 17, 26, 45, 6, 28, 13, 14), 1329)
30: ((41, 7, 18, 46, 1, 8, 4, 47, 42, 34, 38, 27, 16, 2, 48, 29, 23, 35, 12, 44, 20, 31, 3, 24, 37, 11, 39, 32, 10, 9, 43, 0, 25, 15, 49, 19, 40, 22, 33, 21, 30, 36, 5, 17, 26, 45, 6, 28, 13, 14), 1329)
31: ((41, 7, 18, 46, 1, 8, 4, 47, 42, 34, 38, 27, 16, 2, 48, 29, 23, 35, 12, 44, 20, 31, 3, 24, 37, 11, 39, 32, 10, 9, 43, 0, 25, 15, 49, 19, 40, 22, 33, 21, 30, 36, 5, 17, 26, 45, 6, 28, 13, 14), 1329)
32: ((41, 7, 18, 46, 1, 8, 4, 47, 42, 34, 38, 27, 16, 2, 48, 29, 23, 35, 12, 44, 20, 31, 3, 24, 37, 11, 39, 32, 10, 9, 43, 0, 25, 15, 49, 19, 40, 22, 33, 21, 30, 36, 5, 17, 26, 45, 6, 28, 13, 14), 1329)
33: ((41, 7, 18, 46, 1, 8, 4, 47, 42, 34, 38, 27, 16, 2, 48, 29, 23, 35, 12, 44, 20, 31, 3, 24, 37, 11, 39, 32, 10, 9, 43, 0, 25, 15, 49, 19, 40, 22, 33, 21, 30, 36, 5, 17, 26, 45, 6, 28, 13, 14), 1329)
34: ((41, 7, 18, 46, 1, 8, 4, 47, 42, 34, 38, 27, 16, 2, 48, 29, 23, 35, 12, 44, 20, 31, 3, 24, 37, 11, 39, 32, 10, 9, 43, 0, 25, 15, 49, 19, 40, 22, 33, 21, 30, 36, 5, 17, 26, 45, 6, 28, 13, 14), 1329)
35: ((41, 7, 18, 46, 1, 8, 4, 47, 42, 34, 38, 27, 16, 2, 48, 29, 23, 35, 12, 44, 20, 31, 3, 24, 37, 11, 39, 32, 10, 9, 43, 0, 25, 15, 49, 19, 40, 22, 33, 21, 30, 36, 5, 17, 26, 45, 6, 28, 13, 14), 1329)
36: ((41, 7, 18, 46, 1, 8, 4, 47, 42, 34, 38, 27, 16, 2, 48, 29, 23, 35, 12, 44, 20, 31, 3, 24, 37, 11, 39, 32, 10, 9, 43, 0, 25, 15, 49, 19, 40, 22, 33, 21, 30, 36, 5, 17, 26, 45, 6, 28, 13, 14), 1329)
37: ((41, 7, 18, 46, 1, 8, 4, 47, 42, 34, 38, 27, 16, 2, 48, 29, 23, 35, 12, 44, 20, 31, 3, 24, 37, 11, 39, 32, 10, 9, 43, 0, 25, 15, 49, 19, 40, 22, 33, 21, 30, 36, 5, 17, 26, 45, 6, 28, 13, 14), 1329)
38: ((41, 7, 18, 46, 1, 8, 4, 47, 42, 34, 38, 27, 16, 2, 48, 29, 23, 35, 12, 44, 20, 31, 3, 24, 37, 11, 39, 32, 10, 9, 43, 0, 25, 15, 49, 19, 40, 22, 33, 21, 30, 36, 5, 17, 26, 45, 6, 28, 13, 14), 1329)
39: ((41, 7, 18, 46, 1, 8, 4, 47, 42, 34, 38, 27, 16, 2, 48, 29, 23, 35, 12, 44, 20, 31, 3, 24, 37, 11, 39, 32, 10, 9, 43, 0, 25, 15, 49, 19, 40, 22, 33, 21, 30, 36, 5, 17, 26, 45, 6, 28, 13, 14), 1329)
40: ((41, 7, 18, 46, 1, 8, 4, 47, 42, 34, 38, 27, 16, 2, 48, 29, 23, 35, 12, 44, 20, 31, 3, 24, 37, 11, 39, 32, 10, 9, 43, 0, 25, 15, 49, 19, 40, 22, 33, 21, 30, 36, 5, 17, 26, 45, 6, 28, 13, 14), 1329)
41: ((41, 7, 18, 46, 1, 8, 4, 47, 42, 34, 38, 27, 16, 2, 48, 29, 23, 35, 12, 44, 20, 31, 3, 24, 37, 11, 39, 32, 10, 9, 43, 0, 25, 15, 49, 19, 40, 22, 33, 21, 30, 36, 5, 17, 26, 45, 6, 28, 13, 14), 1329)
42: ((41, 7, 18, 46, 1, 8, 4, 47, 42, 34, 38, 27, 16, 2, 48, 29, 23, 35, 12, 44, 20, 31, 3, 24, 37, 11, 39, 32, 10, 9, 43, 0, 25, 15, 49, 19, 40, 22, 33, 21, 30, 36, 5, 17, 26, 45, 6, 28, 13, 14), 1329)
43: ((41, 7, 18, 46, 1, 8, 4, 47, 42, 34, 38, 27, 16, 2, 48, 29, 23, 35, 12, 44, 20, 31, 3, 24, 37, 11, 39, 32, 10, 9, 43, 0, 25, 15, 49, 19, 40, 22, 33, 21, 30, 36, 5, 17, 26, 45, 6, 28, 13, 14), 1329)
44: ((41, 7, 18, 46, 1, 8, 4, 47, 42, 34, 38, 27, 16, 2, 48, 29, 23, 35, 12, 44, 20, 31, 3, 24, 37, 11, 39, 32, 10, 9, 43, 0, 25, 15, 49, 19, 40, 22, 33, 21, 30, 36, 5, 17, 26, 45, 6, 28, 13, 14), 1329)
45: ((41, 7, 18, 46, 1, 8, 4, 47, 42, 34, 38, 27, 16, 2, 48, 29, 23, 35, 12, 44, 20, 31, 3, 24, 37, 11, 39, 32, 10, 9, 43, 0, 25, 15, 49, 19, 40, 22, 33, 21, 30, 36, 5, 17, 26, 45, 6, 28, 13, 14), 1329)
46: ((41, 7, 18, 46, 1, 8, 4, 47, 42, 34, 38, 27, 16, 2, 48, 29, 23, 35, 12, 44, 20, 31, 3, 24, 37, 11, 39, 32, 10, 9, 43, 0, 25, 15, 49, 19, 40, 22, 33, 21, 30, 36, 5, 17, 26, 45, 6, 28, 13, 14), 1329)
47: ((12, 25, 11, 31, 42, 9, 32, 47, 40, 37, 35, 7, 17, 24, 5, 13, 15, 19, 23, 20, 10, 34, 36, 30, 21, 48, 0, 46, 26, 43, 39, 28, 8, 38, 27, 2, 1, 29, 44, 45, 14, 18, 22, 49, 6, 33, 3, 41, 4, 16), 1329)
48: ((12, 25, 11, 31, 42, 9, 32, 47, 40, 37, 35, 7, 17, 24, 5, 13, 15, 19, 23, 20, 10, 34, 36, 30, 21, 48, 0, 46, 26, 43, 39, 28, 8, 38, 27, 2, 1, 29, 44, 45, 14, 18, 22, 49, 6, 33, 3, 41, 4, 16), 1329)
49: ((12, 25, 11, 31, 42, 9, 32, 47, 40, 37, 35, 7, 17, 24, 5, 13, 15, 19, 23, 20, 10, 34, 36, 30, 21, 48, 0, 46, 26, 43, 39, 28, 8, 38, 27, 2, 1, 29, 44, 45, 14, 18, 22, 49, 6, 33, 3, 41, 4, 16), 1329)
50: ((12, 25, 11, 31, 42, 9, 32, 47, 40, 37, 35, 7, 17, 24, 5, 13, 15, 19, 23, 20, 10, 34, 36, 30, 21, 48, 0, 46, 26, 43, 39, 28, 8, 38, 27, 2, 1, 29, 44, 45, 14, 18, 22, 49, 6, 33, 3, 41, 4, 16), 1329)
51: ((12, 25, 11, 31, 42, 9, 32, 47, 40, 37, 35, 7, 17, 24, 5, 13, 15, 19, 23, 20, 10, 34, 36, 30, 21, 48, 0, 46, 26, 43, 39, 28, 8, 38, 27, 2, 1, 29, 44, 45, 14, 18, 22, 49, 6, 33, 3, 41, 4, 16), 1329)
52: ((12, 25, 11, 31, 42, 9, 32, 47, 40, 37, 35, 7, 17, 24, 5, 13, 15, 19, 23, 20, 10, 34, 36, 30, 21, 48, 0, 46, 26, 43, 39, 28, 8, 38, 27, 2, 1, 29, 44, 45, 14, 18, 22, 49, 6, 33, 3, 41, 4, 16), 1329)
53: ((12, 25, 11, 31, 42, 9, 32, 47, 40, 37, 35, 7, 17, 24, 5, 13, 15, 19, 23, 20, 10, 34, 36, 30, 21, 48, 0, 46, 26, 43, 39, 28, 8, 38, 27, 2, 1, 29, 44, 45, 14, 18, 22, 49, 6, 33, 3, 41, 4, 16), 1329)
54: ((12, 25, 11, 31, 42, 9, 32, 47, 40, 37, 35, 7, 17, 24, 5, 13, 15, 19, 23, 20, 10, 34, 36, 30, 21, 48, 0, 46, 26, 43, 39, 28, 8, 38, 27, 2, 1, 29, 44, 45, 14, 18, 22, 49, 6, 33, 3, 41, 4, 16), 1329)
55: ((12, 25, 11, 31, 42, 9, 32, 47, 40, 37, 35, 7, 17, 24, 5, 13, 15, 19, 23, 20, 10, 34, 36, 30, 21, 48, 0, 46, 26, 43, 39, 28, 8, 38, 27, 2, 1, 29, 44, 45, 14, 18, 22, 49, 6, 33, 3, 41, 4, 16), 1329)
56: ((12, 25, 11, 31, 42, 9, 32, 47, 40, 37, 35, 7, 17, 24, 5, 13, 15, 19, 23, 20, 10, 34, 36, 30, 21, 48, 0, 46, 26, 43, 39, 28, 8, 38, 27, 2, 1, 29, 44, 45, 14, 18, 22, 49, 6, 33, 3, 41, 4, 16), 1329)
57: ((12, 25, 11, 31, 42, 9, 32, 47, 40, 37, 35, 7, 17, 24, 5, 13, 15, 19, 23, 20, 10, 34, 36, 30, 21, 48, 0, 46, 26, 43, 39, 28, 8, 38, 27, 2, 1, 29, 44, 45, 14, 18, 22, 49, 6, 33, 3, 41, 4, 16), 1329)
58: ((12, 25, 11, 31, 42, 9, 32, 47, 40, 37, 35, 7, 17, 24, 5, 13, 15, 19, 23, 20, 10, 34, 36, 30, 21, 48, 0, 46, 26, 43, 39, 28, 8, 38, 27, 2, 1, 29, 44, 45, 14, 18, 22, 49, 6, 33, 3, 41, 4, 16), 1329)
59: ((12, 25, 11, 31, 42, 9, 32, 47, 40, 37, 35, 7, 17, 24, 5, 13, 15, 19, 23, 20, 10, 34, 36, 30, 21, 48, 0, 46, 26, 43, 39, 28, 8, 38, 27, 2, 1, 29, 44, 45, 14, 18, 22, 49, 6, 33, 3, 41, 4, 16), 1329)
60: ((12, 25, 11, 31, 42, 9, 32, 47, 40, 37, 35, 7, 17, 24, 5, 13, 15, 19, 23, 20, 10, 34, 36, 30, 21, 48, 0, 46, 26, 43, 39, 28, 8, 38, 27, 2, 1, 29, 44, 45, 14, 18, 22, 49, 6, 33, 3, 41, 4, 16), 1329)
61: ((12, 25, 11, 31, 42, 9, 32, 47, 40, 37, 35, 7, 17, 24, 5, 13, 15, 19, 23, 20, 10, 34, 36, 30, 21, 48, 0, 46, 26, 43, 39, 28, 8, 38, 27, 2, 1, 29, 44, 45, 14, 18, 22, 49, 6, 33, 3, 41, 4, 16), 1329)
62: ((12, 25, 11, 31, 42, 9, 32, 47, 40, 37, 35, 7, 17, 24, 5, 13, 15, 19, 23, 20, 10, 34, 36, 30, 21, 48, 0, 46, 26, 43, 39, 28, 8, 38, 27, 2, 1, 29, 44, 45, 14, 18, 22, 49, 6, 33, 3, 41, 4, 16), 1329)
63: ((12, 25, 11, 31, 42, 9, 32, 47, 40, 37, 35, 7, 17, 24, 5, 13, 15, 19, 23, 20, 10, 34, 36, 30, 21, 48, 0, 46, 26, 43, 39, 28, 8, 38, 27, 2, 1, 29, 44, 45, 14, 18, 22, 49, 6, 33, 3, 41, 4, 16), 1329)
64: ((12, 25, 11, 31, 42, 9, 32, 47, 40, 37, 35, 7, 17, 24, 5, 13, 15, 19, 23, 20, 10, 34, 36, 30, 21, 48, 0, 46, 26, 43, 39, 28, 8, 38, 27, 2, 1, 29, 44, 45, 14, 18, 22, 49, 6, 33, 3, 41, 4, 16), 1329)
65: ((12, 25, 11, 31, 42, 9, 32, 47, 40, 37, 35, 7, 17, 24, 5, 13, 15, 19, 23, 20, 10, 34, 36, 30, 21, 48, 0, 46, 26, 43, 39, 28, 8, 38, 27, 2, 1, 29, 44, 45, 14, 18, 22, 49, 6, 33, 3, 41, 4, 16), 1329)
66: ((12, 25, 11, 31, 42, 9, 32, 47, 40, 37, 35, 7, 17, 24, 5, 13, 15, 19, 23, 20, 10, 34, 36, 30, 21, 48, 0, 46, 26, 43, 39, 28, 8, 38, 27, 2, 1, 29, 44, 45, 14, 18, 22, 49, 6, 33, 3, 41, 4, 16), 1329)
67: ((12, 25, 11, 31, 42, 9, 32, 47, 40, 37, 35, 7, 17, 24, 5, 13, 15, 19, 23, 20, 10, 34, 36, 30, 21, 48, 0, 46, 26, 43, 39, 28, 8, 38, 27, 2, 1, 29, 44, 45, 14, 18, 22, 49, 6, 33, 3, 41, 4, 16), 1329)
68: ((12, 25, 11, 31, 42, 9, 32, 47, 40, 37, 35, 7, 17, 24, 5, 13, 15, 19, 23, 20, 10, 34, 36, 30, 21, 48, 0, 46, 26, 43, 39, 28, 8, 38, 27, 2, 1, 29, 44, 45, 14, 18, 22, 49, 6, 33, 3, 41, 4, 16), 1329)
69: ((12, 25, 11, 31, 42, 9, 32, 47, 40, 37, 35, 7, 17, 24, 5, 13, 15, 19, 23, 20, 10, 34, 36, 30, 21, 48, 0, 46, 26, 43, 39, 28, 8, 38, 27, 2, 1, 29, 44, 45, 14, 18, 22, 49, 6, 33, 3, 41, 4, 16), 1329)
70: ((12, 25, 11, 31, 42, 9, 32, 47, 40, 37, 35, 7, 17, 24, 5, 13, 15, 19, 23, 20, 10, 34, 36, 30, 21, 48, 0, 46, 26, 43, 39, 28, 8, 38, 27, 2, 1, 29, 44, 45, 14, 18, 22, 49, 6, 33, 3, 41, 4, 16), 1329)
71: ((12, 25, 11, 31, 42, 9, 32, 47, 40, 37, 35, 7, 17, 24, 5, 13, 15, 19, 23, 20, 10, 34, 36, 30, 21, 48, 0, 46, 26, 43, 39, 28, 8, 38, 27, 2, 1, 29, 44, 45, 14, 18, 22, 49, 6, 33, 3, 41, 4, 16), 1329)
72: ((12, 25, 11, 31, 42, 9, 32, 47, 40, 37, 35, 7, 17, 24, 5, 13, 15, 19, 23, 20, 10, 34, 36, 30, 21, 48, 0, 46, 26, 43, 39, 28, 8, 38, 27, 2, 1, 29, 44, 45, 14, 18, 22, 49, 6, 33, 3, 41, 4, 16), 1329)
73: ((12, 25, 11, 31, 42, 9, 32, 47, 40, 37, 35, 7, 17, 24, 5, 13, 15, 19, 23, 20, 10, 34, 36, 30, 21, 48, 0, 46, 26, 43, 39, 28, 8, 38, 27, 2, 1, 29, 44, 45, 14, 18, 22, 49, 6, 33, 3, 41, 4, 16), 1329)
74: ((12, 25, 11, 31, 42, 9, 32, 47, 40, 37, 35, 7, 17, 24, 5, 13, 15, 19, 23, 20, 10, 34, 36, 30, 21, 48, 0, 46, 26, 43, 39, 28, 8, 38, 27, 2, 1, 29, 44, 45, 14, 18, 22, 49, 6, 33, 3, 41, 4, 16), 1329)
75: ((12, 25, 11, 31, 42, 9, 32, 47, 40, 37, 35, 7, 17, 24, 5, 13, 15, 19, 23, 20, 10, 34, 36, 30, 21, 48, 0, 46, 26, 43, 39, 28, 8, 38, 27, 2, 1, 29, 44, 45, 14, 18, 22, 49, 6, 33, 3, 41, 4, 16), 1329)
76: ((12, 25, 11, 31, 42, 9, 32, 47, 40, 37, 35, 7, 17, 24, 5, 13, 15, 19, 23, 20, 10, 34, 36, 30, 21, 48, 0, 46, 26, 43, 39, 28, 8, 38, 27, 2, 1, 29, 44, 45, 14, 18, 22, 49, 6, 33, 3, 41, 4, 16), 1329)
77: ((12, 25, 11, 31, 42, 9, 32, 47, 40, 37, 35, 7, 17, 24, 5, 13, 15, 19, 23, 20, 10, 34, 36, 30, 21, 48, 0, 46, 26, 43, 39, 28, 8, 38, 27, 2, 1, 29, 44, 45, 14, 18, 22, 49, 6, 33, 3, 41, 4, 16), 1329)
78: ((12, 25, 11, 31, 42, 9, 32, 47, 40, 37, 35, 7, 17, 24, 5, 13, 15, 19, 23, 20, 10, 34, 36, 30, 21, 48, 0, 46, 26, 43, 39, 28, 8, 38, 27, 2, 1, 29, 44, 45, 14, 18, 22, 49, 6, 33, 3, 41, 4, 16), 1329)
79: ((12, 25, 11, 31, 42, 9, 32, 47, 40, 37, 35, 7, 17, 24, 5, 13, 15, 19, 23, 20, 10, 34, 36, 30, 21, 48, 0, 46, 26, 43, 39, 28, 8, 38, 27, 2, 1, 29, 44, 45, 14, 18, 22, 49, 6, 33, 3, 41, 4, 16), 1329)
80: ((12, 25, 11, 31, 42, 9, 32, 47, 40, 37, 35, 7, 17, 24, 5, 13, 15, 19, 23, 20, 10, 34, 36, 30, 21, 48, 0, 46, 26, 43, 39, 28, 8, 38, 27, 2, 1, 29, 44, 45, 14, 18, 22, 49, 6, 33, 3, 41, 4, 16), 1329)
81: ((12, 25, 11, 31, 42, 9, 32, 47, 40, 37, 35, 7, 17, 24, 5, 13, 15, 19, 23, 20, 10, 34, 36, 30, 21, 48, 0, 46, 26, 43, 39, 28, 8, 38, 27, 2, 1, 29, 44, 45, 14, 18, 22, 49, 6, 33, 3, 41, 4, 16), 1329)
82: ((12, 25, 11, 31, 42, 9, 32, 47, 40, 37, 35, 7, 17, 24, 5, 13, 15, 19, 23, 20, 10, 34, 36, 30, 21, 48, 0, 46, 26, 43, 39, 28, 8, 38, 27, 2, 1, 29, 44, 45, 14, 18, 22, 49, 6, 33, 3, 41, 4, 16), 1329)
83: ((12, 25, 11, 31, 42, 9, 32, 47, 40, 37, 35, 7, 17, 24, 5, 13, 15, 19, 23, 20, 10, 34, 36, 30, 21, 48, 0, 46, 26, 43, 39, 28, 8, 38, 27, 2, 1, 29, 44, 45, 14, 18, 22, 49, 6, 33, 3, 41, 4, 16), 1329)
84: ((12, 25, 11, 31, 42, 9, 32, 47, 40, 37, 35, 7, 17, 24, 5, 13, 15, 19, 23, 20, 10, 34, 36, 30, 21, 48, 0, 46, 26, 43, 39, 28, 8, 38, 27, 2, 1, 29, 44, 45, 14, 18, 22, 49, 6, 33, 3, 41, 4, 16), 1329)
85: ((12, 25, 11, 31, 42, 9, 32, 47, 40, 37, 35, 7, 17, 24, 5, 13, 15, 19, 23, 20, 10, 34, 36, 30, 21, 48, 0, 46, 26, 43, 39, 28, 8, 38, 27, 2, 1, 29, 44, 45, 14, 18, 22, 49, 6, 33, 3, 41, 4, 16), 1329)
86: ((12, 25, 11, 31, 42, 9, 32, 47, 40, 37, 35, 7, 17, 24, 5, 13, 15, 19, 23, 20, 10, 34, 36, 30, 21, 48, 0, 46, 26, 43, 39, 28, 8, 38, 27, 2, 1, 29, 44, 45, 14, 18, 22, 49, 6, 33, 3, 41, 4, 16), 1329)
87: ((12, 25, 11, 31, 42, 9, 32, 47, 40, 37, 35, 7, 17, 24, 5, 13, 15, 19, 23, 20, 10, 34, 36, 30, 21, 48, 0, 46, 26, 43, 39, 28, 8, 38, 27, 2, 1, 29, 44, 45, 14, 18, 22, 49, 6, 33, 3, 41, 4, 16), 1329)
88: ((12, 25, 11, 31, 42, 9, 32, 47, 40, 37, 35, 7, 17, 24, 5, 13, 15, 19, 23, 20, 10, 34, 36, 30, 21, 48, 0, 46, 26, 43, 39, 28, 8, 38, 27, 2, 1, 29, 44, 45, 14, 18, 22, 49, 6, 33, 3, 41, 4, 16), 1329)
89: ((12, 25, 11, 31, 42, 9, 32, 47, 40, 37, 35, 7, 17, 24, 5, 13, 15, 19, 23, 20, 10, 34, 36, 30, 21, 48, 0, 46, 26, 43, 39, 28, 8, 38, 27, 2, 1, 29, 44, 45, 14, 18, 22, 49, 6, 33, 3, 41, 4, 16), 1329)
90: ((12, 25, 11, 31, 42, 9, 32, 47, 40, 37, 35, 7, 17, 24, 5, 13, 15, 19, 23, 20, 10, 34, 36, 30, 21, 48, 0, 46, 26, 43, 39, 28, 8, 38, 27, 2, 1, 29, 44, 45, 14, 18, 22, 49, 6, 33, 3, 41, 4, 16), 1329)
91: ((12, 25, 11, 31, 42, 9, 32, 47, 40, 37, 35, 7, 17, 24, 5, 13, 15, 19, 23, 20, 10, 34, 36, 30, 21, 48, 0, 46, 26, 43, 39, 28, 8, 38, 27, 2, 1, 29, 44, 45, 14, 18, 22, 49, 6, 33, 3, 41, 4, 16), 1329)
92: ((12, 25, 11, 31, 42, 9, 32, 47, 40, 37, 35, 7, 17, 24, 5, 13, 15, 19, 23, 20, 10, 34, 36, 30, 21, 48, 0, 46, 26, 43, 39, 28, 8, 38, 27, 2, 1, 29, 44, 45, 14, 18, 22, 49, 6, 33, 3, 41, 4, 16), 1329)
93: ((12, 25, 11, 31, 42, 9, 32, 47, 40, 37, 35, 7, 17, 24, 5, 13, 15, 19, 23, 20, 10, 34, 36, 30, 21, 48, 0, 46, 26, 43, 39, 28, 8, 38, 27, 2, 1, 29, 44, 45, 14, 18, 22, 49, 6, 33, 3, 41, 4, 16), 1329)
94: ((12, 25, 11, 31, 42, 9, 32, 47, 40, 37, 35, 7, 17, 24, 5, 13, 15, 19, 23, 20, 10, 34, 36, 30, 21, 48, 0, 46, 26, 43, 39, 28, 8, 38, 27, 2, 1, 29, 44, 45, 14, 18, 22, 49, 6, 33, 3, 41, 4, 16), 1329)
95: ((12, 25, 11, 31, 42, 9, 32, 47, 40, 37, 35, 7, 17, 24, 5, 13, 15, 19, 23, 20, 10, 34, 36, 30, 21, 48, 0, 46, 26, 43, 39, 28, 8, 38, 27, 2, 1, 29, 44, 45, 14, 18, 22, 49, 6, 33, 3, 41, 4, 16), 1329)
Best: ((41, 7, 18, 46, 1, 8, 4, 47, 42, 34, 38, 27, 16, 2, 48, 29, 23, 35, 12, 44, 20, 31, 3, 24, 37, 11, 39, 32, 10, 9, 43, 0, 25, 15, 49, 19, 40, 22, 33, 21, 30, 36, 5, 17, 26, 45, 6, 28, 13, 14), 1329)
Runtime: 21.5066928 s